p cnf 142 805
c max 11 12 13 14 19 20 21 22 27 28 29 30 35 36 37 38 43 44 45 46 51 52 53 54 59 60 61 62 67 68 69 70 75 76 77 78 83 84 85 86 91 92 93 94 99 100 101 102 107 108 109 110 115 116 117 118 123 124 125 126 131 132 133 134 139 140 141 142 0
c ind 1 2 3 4 5 6 7 8 9 10 15 16 17 18 23 24 25 26 31 32 33 34 39 40 41 42 47 48 49 50 55 56 57 58 63 64 65 66 71 72 73 74 79 80 81 82 87 88 89 90 95 96 97 98 103 104 105 106 111 112 113 114 119 120 121 122 127 128 129 130 135 136 137 138 0
c p weight 4 0.9238795325112867384831361050601117312908172607421875 0
c p weight -4 1 0
c p weight 5 -0.382683432365089781779232680491986684501171112060546875 0
c p weight -5 1 0
c p weight 6 -1 0
c p weight -6 1 0
c p weight 9 -1 0
c p weight -9 1 0
c p weight 10 0.70710678118654752440084436210485 0
c p weight -10 1 0
c p weight 17 -1 0
c p weight -17 1 0
c p weight 18 0.70710678118654752440084436210485 0
c p weight -18 1 0
c p weight 25 -1 0
c p weight -25 1 0
c p weight 26 0.70710678118654752440084436210485 0
c p weight -26 1 0
c p weight 33 -1 0
c p weight -33 1 0
c p weight 34 0.70710678118654752440084436210485 0
c p weight -34 1 0
c p weight 41 -1 0
c p weight -41 1 0
c p weight 42 0.70710678118654752440084436210485 0
c p weight -42 1 0
c p weight 49 -1 0
c p weight -49 1 0
c p weight 50 0.70710678118654752440084436210485 0
c p weight -50 1 0
c p weight 57 -1 0
c p weight -57 1 0
c p weight 58 0.70710678118654752440084436210485 0
c p weight -58 1 0
c p weight 65 -1 0
c p weight -65 1 0
c p weight 66 0.70710678118654752440084436210485 0
c p weight -66 1 0
c p weight 73 -1 0
c p weight -73 1 0
c p weight 74 0.70710678118654752440084436210485 0
c p weight -74 1 0
c p weight 81 -1 0
c p weight -81 1 0
c p weight 82 0.70710678118654752440084436210485 0
c p weight -82 1 0
c p weight 89 -1 0
c p weight -89 1 0
c p weight 90 0.70710678118654752440084436210485 0
c p weight -90 1 0
c p weight 97 -1 0
c p weight -97 1 0
c p weight 98 0.70710678118654752440084436210485 0
c p weight -98 1 0
c p weight 105 -1 0
c p weight -105 1 0
c p weight 106 0.70710678118654752440084436210485 0
c p weight -106 1 0
c p weight 113 -1 0
c p weight -113 1 0
c p weight 114 0.70710678118654752440084436210485 0
c p weight -114 1 0
c p weight 121 -1 0
c p weight -121 1 0
c p weight 122 0.70710678118654752440084436210485 0
c p weight -122 1 0
c p weight 129 -1 0
c p weight -129 1 0
c p weight 130 0.70710678118654752440084436210485 0
c p weight -130 1 0
c p weight 137 -1 0
c p weight -137 1 0
c p weight 138 0.70710678118654752440084436210485 0
c p weight -138 1 0
3 1 -2 0
-3 1 2 0
-4 1 0
3 -4 -2 0
-3 -4 2 0
3 4 -1 2 0
-3 4 -1 -2 0
-5 1 0
3 -5 2 0
-3 -5 -2 0
3 5 -1 -2 0
-3 5 -1 2 0
-6 1 0
-6 2 0
-6 -3 0
6 3 -1 -2 0
-9 -11 0
7 -11 -1 0
-7 -11 1 0
8 -11 -3 0
-8 -11 3 0
-10 -11 0
-9 -12 1 0
-9 -12 3 0
9 -12 -1 -3 0
7 -12 -3 0
-7 -12 3 0
8 -12 -1 0
-8 -12 1 0
-10 -12 0
-9 8 -13 0
-9 -13 1 0
-9 -13 -3 0
9 -8 -13 -1 3 0
-9 -14 1 0
-9 -14 3 0
-9 -8 -14 0
9 8 -14 -1 -3 0
7 -13 -1 0
7 -14 -1 0
-7 -13 1 0
-7 -14 1 0
8 -13 1 -3 0
8 -14 1 -3 0
-8 -13 1 3 0
-8 -14 1 3 0
10 -13 -1 0
10 -14 -1 0
-10 -13 1 0
-10 -14 1 0
11 12 13 14 0
-11 -12 0
-11 -13 0
-11 -14 0
-12 -13 0
-12 -14 0
-13 -14 0
-17 -19 0
15 -19 -7 0
-15 -19 7 0
16 -19 -8 0
-16 -19 8 0
-18 -19 0
-17 -20 7 0
-17 -20 8 0
17 -20 -7 -8 0
15 -20 -8 0
-15 -20 8 0
16 -20 -7 0
-16 -20 7 0
-18 -20 0
-17 16 -21 0
-17 -21 7 0
-17 -21 -8 0
17 -16 -21 -7 8 0
-17 -22 7 0
-17 -22 8 0
-17 -16 -22 0
17 16 -22 -7 -8 0
15 -21 -7 0
15 -22 -7 0
-15 -21 7 0
-15 -22 7 0
16 -21 7 -8 0
16 -22 7 -8 0
-16 -21 7 8 0
-16 -22 7 8 0
18 -21 -7 0
18 -22 -7 0
-18 -21 7 0
-18 -22 7 0
19 20 21 22 0
-19 -20 0
-19 -21 0
-19 -22 0
-20 -21 0
-20 -22 0
-21 -22 0
-20 -12 0
-22 -13 0
-21 -14 0
-11 19 0
-25 -27 0
23 -27 -15 0
-23 -27 15 0
24 -27 -16 0
-24 -27 16 0
-26 -27 0
-25 -28 15 0
-25 -28 16 0
25 -28 -15 -16 0
23 -28 -16 0
-23 -28 16 0
24 -28 -15 0
-24 -28 15 0
-26 -28 0
-25 24 -29 0
-25 -29 15 0
-25 -29 -16 0
25 -24 -29 -15 16 0
-25 -30 15 0
-25 -30 16 0
-25 -24 -30 0
25 24 -30 -15 -16 0
23 -29 -15 0
23 -30 -15 0
-23 -29 15 0
-23 -30 15 0
24 -29 15 -16 0
24 -30 15 -16 0
-24 -29 15 16 0
-24 -30 15 16 0
26 -29 -15 0
26 -30 -15 0
-26 -29 15 0
-26 -30 15 0
27 28 29 30 0
-27 -28 0
-27 -29 0
-27 -30 0
-28 -29 0
-28 -30 0
-29 -30 0
-28 -20 0
-30 -21 0
-29 -22 0
-19 27 0
-33 -35 0
31 -35 -23 0
-31 -35 23 0
32 -35 -24 0
-32 -35 24 0
-34 -35 0
-33 -36 23 0
-33 -36 24 0
33 -36 -23 -24 0
31 -36 -24 0
-31 -36 24 0
32 -36 -23 0
-32 -36 23 0
-34 -36 0
-33 32 -37 0
-33 -37 23 0
-33 -37 -24 0
33 -32 -37 -23 24 0
-33 -38 23 0
-33 -38 24 0
-33 -32 -38 0
33 32 -38 -23 -24 0
31 -37 -23 0
31 -38 -23 0
-31 -37 23 0
-31 -38 23 0
32 -37 23 -24 0
32 -38 23 -24 0
-32 -37 23 24 0
-32 -38 23 24 0
34 -37 -23 0
34 -38 -23 0
-34 -37 23 0
-34 -38 23 0
35 36 37 38 0
-35 -36 0
-35 -37 0
-35 -38 0
-36 -37 0
-36 -38 0
-37 -38 0
-36 -28 0
-38 -29 0
-37 -30 0
-27 35 0
-41 -43 0
39 -43 -31 0
-39 -43 31 0
40 -43 -32 0
-40 -43 32 0
-42 -43 0
-41 -44 31 0
-41 -44 32 0
41 -44 -31 -32 0
39 -44 -32 0
-39 -44 32 0
40 -44 -31 0
-40 -44 31 0
-42 -44 0
-41 40 -45 0
-41 -45 31 0
-41 -45 -32 0
41 -40 -45 -31 32 0
-41 -46 31 0
-41 -46 32 0
-41 -40 -46 0
41 40 -46 -31 -32 0
39 -45 -31 0
39 -46 -31 0
-39 -45 31 0
-39 -46 31 0
40 -45 31 -32 0
40 -46 31 -32 0
-40 -45 31 32 0
-40 -46 31 32 0
42 -45 -31 0
42 -46 -31 0
-42 -45 31 0
-42 -46 31 0
43 44 45 46 0
-43 -44 0
-43 -45 0
-43 -46 0
-44 -45 0
-44 -46 0
-45 -46 0
-44 -36 0
-46 -37 0
-45 -38 0
-35 43 0
-49 -51 0
47 -51 -39 0
-47 -51 39 0
48 -51 -40 0
-48 -51 40 0
-50 -51 0
-49 -52 39 0
-49 -52 40 0
49 -52 -39 -40 0
47 -52 -40 0
-47 -52 40 0
48 -52 -39 0
-48 -52 39 0
-50 -52 0
-49 48 -53 0
-49 -53 39 0
-49 -53 -40 0
49 -48 -53 -39 40 0
-49 -54 39 0
-49 -54 40 0
-49 -48 -54 0
49 48 -54 -39 -40 0
47 -53 -39 0
47 -54 -39 0
-47 -53 39 0
-47 -54 39 0
48 -53 39 -40 0
48 -54 39 -40 0
-48 -53 39 40 0
-48 -54 39 40 0
50 -53 -39 0
50 -54 -39 0
-50 -53 39 0
-50 -54 39 0
51 52 53 54 0
-51 -52 0
-51 -53 0
-51 -54 0
-52 -53 0
-52 -54 0
-53 -54 0
-52 -44 0
-54 -45 0
-53 -46 0
-54 -46 -38 -30 -22 0
-53 -45 -37 -29 -21 0
-43 51 0
-57 -59 0
55 -59 -47 0
-55 -59 47 0
56 -59 -48 0
-56 -59 48 0
-58 -59 0
-57 -60 47 0
-57 -60 48 0
57 -60 -47 -48 0
55 -60 -48 0
-55 -60 48 0
56 -60 -47 0
-56 -60 47 0
-58 -60 0
-57 56 -61 0
-57 -61 47 0
-57 -61 -48 0
57 -56 -61 -47 48 0
-57 -62 47 0
-57 -62 48 0
-57 -56 -62 0
57 56 -62 -47 -48 0
55 -61 -47 0
55 -62 -47 0
-55 -61 47 0
-55 -62 47 0
56 -61 47 -48 0
56 -62 47 -48 0
-56 -61 47 48 0
-56 -62 47 48 0
58 -61 -47 0
58 -62 -47 0
-58 -61 47 0
-58 -62 47 0
59 60 61 62 0
-59 -60 0
-59 -61 0
-59 -62 0
-60 -61 0
-60 -62 0
-61 -62 0
-60 -52 0
-62 -53 0
-61 -54 0
-62 -54 -46 -38 -30 0
-61 -53 -45 -37 -29 0
-51 59 0
-65 -67 0
63 -67 -55 0
-63 -67 55 0
64 -67 -56 0
-64 -67 56 0
-66 -67 0
-65 -68 55 0
-65 -68 56 0
65 -68 -55 -56 0
63 -68 -56 0
-63 -68 56 0
64 -68 -55 0
-64 -68 55 0
-66 -68 0
-65 64 -69 0
-65 -69 55 0
-65 -69 -56 0
65 -64 -69 -55 56 0
-65 -70 55 0
-65 -70 56 0
-65 -64 -70 0
65 64 -70 -55 -56 0
63 -69 -55 0
63 -70 -55 0
-63 -69 55 0
-63 -70 55 0
64 -69 55 -56 0
64 -70 55 -56 0
-64 -69 55 56 0
-64 -70 55 56 0
66 -69 -55 0
66 -70 -55 0
-66 -69 55 0
-66 -70 55 0
67 68 69 70 0
-67 -68 0
-67 -69 0
-67 -70 0
-68 -69 0
-68 -70 0
-69 -70 0
-68 -60 0
-70 -61 0
-69 -62 0
-70 -62 -54 -46 -38 0
-69 -61 -53 -45 -37 0
-59 67 0
-73 -75 0
71 -75 -63 0
-71 -75 63 0
72 -75 -64 0
-72 -75 64 0
-74 -75 0
-73 -76 63 0
-73 -76 64 0
73 -76 -63 -64 0
71 -76 -64 0
-71 -76 64 0
72 -76 -63 0
-72 -76 63 0
-74 -76 0
-73 72 -77 0
-73 -77 63 0
-73 -77 -64 0
73 -72 -77 -63 64 0
-73 -78 63 0
-73 -78 64 0
-73 -72 -78 0
73 72 -78 -63 -64 0
71 -77 -63 0
71 -78 -63 0
-71 -77 63 0
-71 -78 63 0
72 -77 63 -64 0
72 -78 63 -64 0
-72 -77 63 64 0
-72 -78 63 64 0
74 -77 -63 0
74 -78 -63 0
-74 -77 63 0
-74 -78 63 0
75 76 77 78 0
-75 -76 0
-75 -77 0
-75 -78 0
-76 -77 0
-76 -78 0
-77 -78 0
-76 -68 0
-78 -69 0
-77 -70 0
-78 -70 -62 -54 -46 0
-77 -69 -61 -53 -45 0
-67 75 0
-81 -83 0
79 -83 -71 0
-79 -83 71 0
80 -83 -72 0
-80 -83 72 0
-82 -83 0
-81 -84 71 0
-81 -84 72 0
81 -84 -71 -72 0
79 -84 -72 0
-79 -84 72 0
80 -84 -71 0
-80 -84 71 0
-82 -84 0
-81 80 -85 0
-81 -85 71 0
-81 -85 -72 0
81 -80 -85 -71 72 0
-81 -86 71 0
-81 -86 72 0
-81 -80 -86 0
81 80 -86 -71 -72 0
79 -85 -71 0
79 -86 -71 0
-79 -85 71 0
-79 -86 71 0
80 -85 71 -72 0
80 -86 71 -72 0
-80 -85 71 72 0
-80 -86 71 72 0
82 -85 -71 0
82 -86 -71 0
-82 -85 71 0
-82 -86 71 0
83 84 85 86 0
-83 -84 0
-83 -85 0
-83 -86 0
-84 -85 0
-84 -86 0
-85 -86 0
-84 -76 0
-86 -77 0
-85 -78 0
-86 -78 -70 -62 -54 0
-85 -77 -69 -61 -53 0
-75 83 0
-89 -91 0
87 -91 -79 0
-87 -91 79 0
88 -91 -80 0
-88 -91 80 0
-90 -91 0
-89 -92 79 0
-89 -92 80 0
89 -92 -79 -80 0
87 -92 -80 0
-87 -92 80 0
88 -92 -79 0
-88 -92 79 0
-90 -92 0
-89 88 -93 0
-89 -93 79 0
-89 -93 -80 0
89 -88 -93 -79 80 0
-89 -94 79 0
-89 -94 80 0
-89 -88 -94 0
89 88 -94 -79 -80 0
87 -93 -79 0
87 -94 -79 0
-87 -93 79 0
-87 -94 79 0
88 -93 79 -80 0
88 -94 79 -80 0
-88 -93 79 80 0
-88 -94 79 80 0
90 -93 -79 0
90 -94 -79 0
-90 -93 79 0
-90 -94 79 0
91 92 93 94 0
-91 -92 0
-91 -93 0
-91 -94 0
-92 -93 0
-92 -94 0
-93 -94 0
-92 -84 0
-94 -85 0
-93 -86 0
-94 -86 -78 -70 -62 0
-93 -85 -77 -69 -61 0
-83 91 0
-97 -99 0
95 -99 -87 0
-95 -99 87 0
96 -99 -88 0
-96 -99 88 0
-98 -99 0
-97 -100 87 0
-97 -100 88 0
97 -100 -87 -88 0
95 -100 -88 0
-95 -100 88 0
96 -100 -87 0
-96 -100 87 0
-98 -100 0
-97 96 -101 0
-97 -101 87 0
-97 -101 -88 0
97 -96 -101 -87 88 0
-97 -102 87 0
-97 -102 88 0
-97 -96 -102 0
97 96 -102 -87 -88 0
95 -101 -87 0
95 -102 -87 0
-95 -101 87 0
-95 -102 87 0
96 -101 87 -88 0
96 -102 87 -88 0
-96 -101 87 88 0
-96 -102 87 88 0
98 -101 -87 0
98 -102 -87 0
-98 -101 87 0
-98 -102 87 0
99 100 101 102 0
-99 -100 0
-99 -101 0
-99 -102 0
-100 -101 0
-100 -102 0
-101 -102 0
-100 -92 0
-102 -93 0
-101 -94 0
-102 -94 -86 -78 -70 0
-101 -93 -85 -77 -69 0
-91 99 0
-105 -107 0
103 -107 -95 0
-103 -107 95 0
104 -107 -96 0
-104 -107 96 0
-106 -107 0
-105 -108 95 0
-105 -108 96 0
105 -108 -95 -96 0
103 -108 -96 0
-103 -108 96 0
104 -108 -95 0
-104 -108 95 0
-106 -108 0
-105 104 -109 0
-105 -109 95 0
-105 -109 -96 0
105 -104 -109 -95 96 0
-105 -110 95 0
-105 -110 96 0
-105 -104 -110 0
105 104 -110 -95 -96 0
103 -109 -95 0
103 -110 -95 0
-103 -109 95 0
-103 -110 95 0
104 -109 95 -96 0
104 -110 95 -96 0
-104 -109 95 96 0
-104 -110 95 96 0
106 -109 -95 0
106 -110 -95 0
-106 -109 95 0
-106 -110 95 0
107 108 109 110 0
-107 -108 0
-107 -109 0
-107 -110 0
-108 -109 0
-108 -110 0
-109 -110 0
-108 -100 0
-110 -101 0
-109 -102 0
-110 -102 -94 -86 -78 0
-109 -101 -93 -85 -77 0
-99 107 0
-113 -115 0
111 -115 -103 0
-111 -115 103 0
112 -115 -104 0
-112 -115 104 0
-114 -115 0
-113 -116 103 0
-113 -116 104 0
113 -116 -103 -104 0
111 -116 -104 0
-111 -116 104 0
112 -116 -103 0
-112 -116 103 0
-114 -116 0
-113 112 -117 0
-113 -117 103 0
-113 -117 -104 0
113 -112 -117 -103 104 0
-113 -118 103 0
-113 -118 104 0
-113 -112 -118 0
113 112 -118 -103 -104 0
111 -117 -103 0
111 -118 -103 0
-111 -117 103 0
-111 -118 103 0
112 -117 103 -104 0
112 -118 103 -104 0
-112 -117 103 104 0
-112 -118 103 104 0
114 -117 -103 0
114 -118 -103 0
-114 -117 103 0
-114 -118 103 0
115 116 117 118 0
-115 -116 0
-115 -117 0
-115 -118 0
-116 -117 0
-116 -118 0
-117 -118 0
-116 -108 0
-118 -109 0
-117 -110 0
-118 -110 -102 -94 -86 0
-117 -109 -101 -93 -85 0
-107 115 0
-121 -123 0
119 -123 -111 0
-119 -123 111 0
120 -123 -112 0
-120 -123 112 0
-122 -123 0
-121 -124 111 0
-121 -124 112 0
121 -124 -111 -112 0
119 -124 -112 0
-119 -124 112 0
120 -124 -111 0
-120 -124 111 0
-122 -124 0
-121 120 -125 0
-121 -125 111 0
-121 -125 -112 0
121 -120 -125 -111 112 0
-121 -126 111 0
-121 -126 112 0
-121 -120 -126 0
121 120 -126 -111 -112 0
119 -125 -111 0
119 -126 -111 0
-119 -125 111 0
-119 -126 111 0
120 -125 111 -112 0
120 -126 111 -112 0
-120 -125 111 112 0
-120 -126 111 112 0
122 -125 -111 0
122 -126 -111 0
-122 -125 111 0
-122 -126 111 0
123 124 125 126 0
-123 -124 0
-123 -125 0
-123 -126 0
-124 -125 0
-124 -126 0
-125 -126 0
-124 -116 0
-126 -117 0
-125 -118 0
-126 -118 -110 -102 -94 0
-125 -117 -109 -101 -93 0
-115 123 0
-129 -131 0
127 -131 -119 0
-127 -131 119 0
128 -131 -120 0
-128 -131 120 0
-130 -131 0
-129 -132 119 0
-129 -132 120 0
129 -132 -119 -120 0
127 -132 -120 0
-127 -132 120 0
128 -132 -119 0
-128 -132 119 0
-130 -132 0
-129 128 -133 0
-129 -133 119 0
-129 -133 -120 0
129 -128 -133 -119 120 0
-129 -134 119 0
-129 -134 120 0
-129 -128 -134 0
129 128 -134 -119 -120 0
127 -133 -119 0
127 -134 -119 0
-127 -133 119 0
-127 -134 119 0
128 -133 119 -120 0
128 -134 119 -120 0
-128 -133 119 120 0
-128 -134 119 120 0
130 -133 -119 0
130 -134 -119 0
-130 -133 119 0
-130 -134 119 0
131 132 133 134 0
-131 -132 0
-131 -133 0
-131 -134 0
-132 -133 0
-132 -134 0
-133 -134 0
-132 -124 0
-134 -125 0
-133 -126 0
-134 -126 -118 -110 -102 0
-133 -125 -117 -109 -101 0
-123 131 0
-137 -139 0
135 -139 -127 0
-135 -139 127 0
136 -139 -128 0
-136 -139 128 0
-138 -139 0
-137 -140 127 0
-137 -140 128 0
137 -140 -127 -128 0
135 -140 -128 0
-135 -140 128 0
136 -140 -127 0
-136 -140 127 0
-138 -140 0
-137 136 -141 0
-137 -141 127 0
-137 -141 -128 0
137 -136 -141 -127 128 0
-137 -142 127 0
-137 -142 128 0
-137 -136 -142 0
137 136 -142 -127 -128 0
135 -141 -127 0
135 -142 -127 0
-135 -141 127 0
-135 -142 127 0
136 -141 127 -128 0
136 -142 127 -128 0
-136 -141 127 128 0
-136 -142 127 128 0
138 -141 -127 0
138 -142 -127 0
-138 -141 127 0
-138 -142 127 0
139 140 141 142 0
-139 -140 0
-139 -141 0
-139 -142 0
-140 -141 0
-140 -142 0
-141 -142 0
-140 -132 0
-142 -133 0
-141 -134 0
-142 -134 -126 -118 -110 0
-141 -133 -125 -117 -109 0
-131 139 0
135 -1 0
-135 1 0
136 -2 0
-136 2 0
